20
5
309953
0
0
14 37 15 14 38
1
0
16 27 19 10 42
2
0
24 25 29 16 49
3
0
24 31 15 23 32
4
0
15 38 15 9 59
5
0
21 40 19 21 51
6
0
19 39 18 15 34
7
0
15 35 30 17 44
8
0
19 37 23 18 31
9
0
17 33 20 13 29
10
0
15 35 11 24 39
11
0
24 48 17 22 42
12
0
24 31 23 26 42
13
0
30 35 18 22 36
14
0
18 26 12 11 55
15
0
21 42 27 17 44
16
0
12 30 25 16 20
17
0
24 31 10 18 28
18
0
22 30 18 14 31
19
0
19 26 14 13 29
